Route #1: 25 46 40 11 4 21 3 20 16
Route #2: 31 53 30 49 44 28 6
Route #3: 2 1 36 22 48 58
Route #4: 42 45 5 54 10
Route #5: 34 24 23 47 14
Route #6: 32 9 51 12 56 43 50
Route #7: 39 26 17 37 57 27 19
Route #8: 35 55 15 8 13 29 7
Route #9: 41 33 38 59 52 18
Cost 1358
Time 0.098203
